(set-info :status unsat)
(declare-const symbol_55 (_ BitVec 32))
(declare-const symbol_32 (_ BitVec 32))
(declare-const symbol_68 (_ BitVec 32))
(declare-const symbol_35 (_ BitVec 32))
(declare-const symbol_25 (_ BitVec 32))
(declare-const symbol_78 (_ BitVec 32))
(declare-const symbol_73 (_ BitVec 32))
(declare-const symbol_58 (_ BitVec 32))
(declare-const symbol_17 (_ BitVec 32))
(declare-const symbol_33 (_ BitVec 32))
(declare-const symbol_63 (_ BitVec 32))
(declare-const symbol_10 (_ BitVec 32))
(declare-const symbol_4 (_ BitVec 32))
(declare-const symbol_26 (_ BitVec 32))
(declare-const symbol_28 (_ BitVec 32))
(declare-const symbol_15 (_ BitVec 32))
(declare-const symbol_0 (_ BitVec 32))
(declare-const symbol_82 (_ BitVec 32))
(declare-const symbol_44 (_ BitVec 32))
(declare-const symbol_65 (_ BitVec 32))
(declare-const symbol_61 (_ BitVec 32))
(declare-const symbol_46 (_ BitVec 32))
(declare-const symbol_6 (_ BitVec 32))
(declare-const symbol_74 (_ BitVec 32))
(declare-const symbol_22 (_ BitVec 32))
(declare-const symbol_41 (_ BitVec 32))
(declare-const symbol_83 (_ BitVec 32))
(declare-const symbol_80 (_ BitVec 32))
(declare-const symbol_50 (_ BitVec 32))
(declare-const symbol_66 (_ BitVec 32))
(declare-const symbol_30 (_ BitVec 32))
(declare-const symbol_37 (_ BitVec 32))
(declare-const symbol_19 (_ BitVec 32))
(declare-const symbol_2 (_ BitVec 32))
(declare-const symbol_51 (_ BitVec 32))
(declare-const symbol_13 (_ BitVec 32))
(declare-const symbol_53 (_ BitVec 32))
(declare-const symbol_59 (_ BitVec 32))
(declare-const symbol_56 (_ BitVec 32))
(declare-const symbol_39 (_ BitVec 32))
(declare-const symbol_8 (_ BitVec 32))
(declare-const symbol_76 (_ BitVec 32))
(declare-const symbol_70 (_ BitVec 32))
(declare-const symbol_48 (_ BitVec 32))
(assert (= symbol_83 (_ bv15 32)))
(assert (not (not (= symbol_83 (_ bv6 32)))))
(assert (not (not (= symbol_82 (_ bv6 32)))))
(assert (not (not (= symbol_80 (_ bv6 32)))))
(assert (not (not (= symbol_78 (_ bv6 32)))))
(assert (not (not (= symbol_76 (_ bv6 32)))))
(assert (not (not (= symbol_74 (_ bv6 32)))))
(assert (not (not (= symbol_73 (_ bv6 32)))))
(assert (not (not (= symbol_70 (_ bv6 32)))))
(assert (not (not (= symbol_68 (_ bv6 32)))))
(assert (not (not (= symbol_66 (_ bv6 32)))))
(assert (not (not (= symbol_65 (_ bv6 32)))))
(assert (not (not (= symbol_63 (_ bv6 32)))))
(assert (not (not (= symbol_61 (_ bv6 32)))))
(assert (not (not (= symbol_59 (_ bv6 32)))))
(assert (not (not (= symbol_58 (_ bv6 32)))))
(assert (not (not (= symbol_56 (_ bv6 32)))))
(assert (not (not (= symbol_55 (_ bv6 32)))))
(assert (not (not (= symbol_53 (_ bv6 32)))))
(assert (not (not (= symbol_51 (_ bv6 32)))))
(assert (not (not (= symbol_50 (_ bv6 32)))))
(assert (not (not (= symbol_48 (_ bv6 32)))))
(assert (not (not (= symbol_46 (_ bv6 32)))))
(assert (not (not (= symbol_44 (_ bv6 32)))))
(assert (not (not (= symbol_41 (_ bv6 32)))))
(assert (not (not (= symbol_39 (_ bv6 32)))))
(assert (not (not (= symbol_37 (_ bv6 32)))))
(assert (not (not (= symbol_35 (_ bv6 32)))))
(assert (not (not (= symbol_33 (_ bv6 32)))))
(assert (not (not (= symbol_32 (_ bv6 32)))))
(assert (not (not (= symbol_30 (_ bv6 32)))))
(assert (not (not (= symbol_28 (_ bv6 32)))))
(assert (not (not (= symbol_26 (_ bv6 32)))))
(assert (not (not (= symbol_25 (_ bv6 32)))))
(assert (not (not (= symbol_22 (_ bv6 32)))))
(assert (not (not (= symbol_19 (_ bv6 32)))))
(assert (not (not (= symbol_17 (_ bv6 32)))))
(assert (not (not (= symbol_15 (_ bv6 32)))))
(assert (not (not (= symbol_13 (_ bv6 32)))))
(assert (not (not (= symbol_10 (_ bv6 32)))))
(assert (not (not (= symbol_8 (_ bv6 32)))))
(assert (not (not (= symbol_6 (_ bv6 32)))))
(assert (not (not (= symbol_4 (_ bv6 32)))))
(assert (not (not (= symbol_2 (_ bv6 32)))))
(assert (not (not (= symbol_0 (_ bv6 32)))))
(check-sat)